true true true
presolving:
presolving (0 rounds: 0 fast, 0 medium, 0 exhaustive):
 0 deleted vars, 0 deleted constraints, 0 added constraints, 0 tightened bounds, 0 added holes, 0 changed sides, 0 changed coefficients
 0 implications, 0 cliques
presolved problem has 56 variables (56 bin, 0 int, 0 impl, 0 cont) and 48 constraints
     48 constraints of type <linear>
transformed objective value is always integral (scale: 1)
Presolving Time: 0.00

 time | node  | left  |LP iter|LP it/n|mem/heur|mdpt |vars |cons |rows |cuts |sepa|confs|strbr|  dualbound   | primalbound  |  gap   | compl. 
p 0.0s|     1 |     0 |     0 |     - |shiftand|   0 |  56 |  48 |  48 |   0 |  0 |   0 |   0 |      --      | 8.000000e+00 |    Inf | unknown
 time | node  | left  |LP iter|LP it/n|mem/heur|mdpt |vars |cons |rows |cuts |sepa|confs|strbr|  dualbound   | primalbound  |  gap   | compl. 
  0.1s|     1 |     0 |    29 |     - |  3166k |   0 | 864 |  48 |  48 |   0 |  0 |   0 |   0 | 1.000000e+00 | 8.000000e+00 | 700.00%| unknown
 time | node  | left  |LP iter|LP it/n|mem/heur|mdpt |vars |cons |rows |cuts |sepa|confs|strbr|  dualbound   | primalbound  |  gap   | compl. 
 1553s|     1 |     0 |   826 |     - |    15M |   0 |4111 |  48 |  48 |   0 |  0 |   0 |   0 | 6.000000e+00 | 8.000000e+00 |  33.33%| unknown
 time | node  | left  |LP iter|LP it/n|mem/heur|mdpt |vars |cons |rows |cuts |sepa|confs|strbr|  dualbound   | primalbound  |  gap   | compl. 
o1554s|     1 |     0 |  2078 |     - |feaspump|   0 |4111 |  48 |  48 |   0 |  0 |   0 |   0 | 6.000000e+00 | 7.000000e+00 |  16.67%| unknown
 time | node  | left  |LP iter|LP it/n|mem/heur|mdpt |vars |cons |rows |cuts |sepa|confs|strbr|  dualbound   | primalbound  |  gap   | compl. 
 1554s|     1 |     2 |  2078 |     - |    16M |   0 |4111 |  48 |  48 |   0 |  1 |   0 |   0 | 6.000000e+00 | 7.000000e+00 |  16.67%| unknown
 time | node  | left  |LP iter|LP it/n|mem/heur|mdpt |vars |cons |rows |cuts |sepa|confs|strbr|  dualbound   | primalbound  |  gap   | compl. 
 1554s|     2 |     3 |  2112 |  34.0 |    17M |   1 |4111 |  48 |  48 |   0 |  1 |   0 |   0 | 6.000000e+00 | 7.000000e+00 |  16.67%| unknown
 time | node  | left  |LP iter|LP it/n|mem/heur|mdpt |vars |cons |rows |cuts |sepa|confs|strbr|  dualbound   | primalbound  |  gap   | compl. 
 1554s|     3 |     4 |  2185 |  53.5 |    17M |   2 |4111 |  48 |  48 |   0 |  1 |   0 |   0 | 6.000000e+00 | 7.000000e+00 |  16.67%| unknown
 time | node  | left  |LP iter|LP it/n|mem/heur|mdpt |vars |cons |rows |cuts |sepa|confs|strbr|  dualbound   | primalbound  |  gap   | compl. 
 1554s|     4 |     5 |  2190 |  37.3 |    17M |   2 |4111 |  48 |  48 |   0 |  1 |   0 |   0 | 6.000000e+00 | 7.000000e+00 |  16.67%| unknown
 time | node  | left  |LP iter|LP it/n|mem/heur|mdpt |vars |cons |rows |cuts |sepa|confs|strbr|  dualbound   | primalbound  |  gap   | compl. 
 1554s|     5 |     6 |  2194 |  29.0 |    17M |   3 |4111 |  48 |  48 |   0 |  1 |   0 |   0 | 6.000000e+00 | 7.000000e+00 |  16.67%| unknown
 time | node  | left  |LP iter|LP it/n|mem/heur|mdpt |vars |cons |rows |cuts |sepa|confs|strbr|  dualbound   | primalbound  |  gap   | compl. 
 1555s|     6 |     7 |  2948 | 174.0 |    19M |   3 |4111 |  48 |  48 |   0 |  1 |   0 |   0 | 6.000000e+00 | 7.000000e+00 |  16.67%| unknown
 time | node  | left  |LP iter|LP it/n|mem/heur|mdpt |vars |cons |rows |cuts |sepa|confs|strbr|  dualbound   | primalbound  |  gap   | compl. 
 1555s|     7 |     8 |  3032 | 159.0 |    19M |   4 |4111 |  48 |  48 |   0 |  1 |   0 |   0 | 6.000000e+00 | 7.000000e+00 |  16.67%| unknown
 time | node  | left  |LP iter|LP it/n|mem/heur|mdpt |vars |cons |rows |cuts |sepa|confs|strbr|  dualbound   | primalbound  |  gap   | compl. 
 1555s|     8 |     9 |  3116 | 148.3 |    19M |   5 |4111 |  48 |  48 |   0 |  1 |   0 |   0 | 6.000000e+00 | 7.000000e+00 |  16.67%| unknown
 time | node  | left  |LP iter|LP it/n|mem/heur|mdpt |vars |cons |rows |cuts |sepa|confs|strbr|  dualbound   | primalbound  |  gap   | compl. 
 1555s|     9 |    10 |  3162 | 135.5 |    19M |   6 |4111 |  48 |  48 |   0 |  1 |   0 |   0 | 6.000000e+00 | 7.000000e+00 |  16.67%| unknown
 time | node  | left  |LP iter|LP it/n|mem/heur|mdpt |vars |cons |rows |cuts |sepa|confs|strbr|  dualbound   | primalbound  |  gap   | compl. 
 1556s|    10 |    11 |  3422 | 149.3 |    19M |   6 |4606 |  48 |  48 |   0 |  1 |   0 |   0 | 6.000000e+00 | 7.000000e+00 |  16.67%| unknown
 time | node  | left  |LP iter|LP it/n|mem/heur|mdpt |vars |cons |rows |cuts |sepa|confs|strbr|  dualbound   | primalbound  |  gap   | compl. 
 1556s|    11 |    12 |  3439 | 136.1 |    19M |   7 |4606 |  48 |  48 |   0 |  1 |   0 |   0 | 6.000000e+00 | 7.000000e+00 |  16.67%| unknown
 time | node  | left  |LP iter|LP it/n|mem/heur|mdpt |vars |cons |rows |cuts |sepa|confs|strbr|  dualbound   | primalbound  |  gap   | compl. 
 1585s|    12 |    11 |  3852 | 161.3 |    22M |   7 |5299 |  48 |  48 |   0 |  0 |   0 |   0 | 6.000000e+00 | 7.000000e+00 |  16.67%| unknown
 time | node  | left  |LP iter|LP it/n|mem/heur|mdpt |vars |cons |rows |cuts |sepa|confs|strbr|  dualbound   | primalbound  |  gap   | compl. 
 1585s|    13 |    12 |  4325 | 187.2 |    24M |   7 |5299 |  48 |  48 |   0 |  1 |   0 |   0 | 6.000000e+00 | 7.000000e+00 |  16.67%|   0.29%
 time | node  | left  |LP iter|LP it/n|mem/heur|mdpt |vars |cons |rows |cuts |sepa|confs|strbr|  dualbound   | primalbound  |  gap   | compl. 
 1586s|    14 |    13 |  4487 | 185.3 |    24M |   7 |5299 |  48 |  48 |   0 |  1 |   0 |   0 | 6.000000e+00 | 7.000000e+00 |  16.67%|   0.29%
 time | node  | left  |LP iter|LP it/n|mem/heur|mdpt |vars |cons |rows |cuts |sepa|confs|strbr|  dualbound   | primalbound  |  gap   | compl. 
 1586s|    15 |    14 |  4594 | 179.7 |    24M |   8 |5299 |  48 |  48 |   0 |  1 |   0 |   0 | 6.000000e+00 | 7.000000e+00 |  16.67%|   0.29%
 time | node  | left  |LP iter|LP it/n|mem/heur|mdpt |vars |cons |rows |cuts |sepa|confs|strbr|  dualbound   | primalbound  |  gap   | compl. 
 1586s|    16 |    15 |  4628 | 170.0 |    24M |   8 |5299 |  48 |  48 |   0 |  1 |   0 |   0 | 6.000000e+00 | 7.000000e+00 |  16.67%|   0.29%
 time | node  | left  |LP iter|LP it/n|mem/heur|mdpt |vars |cons |rows |cuts |sepa|confs|strbr|  dualbound   | primalbound  |  gap   | compl. 
 1587s|    17 |    16 |  4691 | 163.3 |    24M |   9 |5299 |  48 |  48 |   0 |  1 |   0 |   0 | 6.000000e+00 | 7.000000e+00 |  16.67%|   0.29%
 time | node  | left  |LP iter|LP it/n|mem/heur|mdpt |vars |cons |rows |cuts |sepa|confs|strbr|  dualbound   | primalbound  |  gap   | compl. 
 1587s|    18 |    17 |  5006 | 172.2 |    24M |   9 |5299 |  48 |  48 |   0 |  1 |   0 |   0 | 6.000000e+00 | 7.000000e+00 |  16.67%|   0.29%
 time | node  | left  |LP iter|LP it/n|mem/heur|mdpt |vars |cons |rows |cuts |sepa|confs|strbr|  dualbound   | primalbound  |  gap   | compl. 
 1601s|    19 |    18 |  5221 | 174.6 |    25M |   9 |5917 |  48 |  48 |   0 |  1 |   0 |   0 | 6.000000e+00 | 7.000000e+00 |  16.67%|   0.29%
 time | node  | left  |LP iter|LP it/n|mem/heur|mdpt |vars |cons |rows |cuts |sepa|confs|strbr|  dualbound   | primalbound  |  gap   | compl. 
 1601s|    20 |    19 |  5335 | 171.4 |    25M |  10 |5917 |  48 |  48 |   0 |  1 |   0 |   0 | 6.000000e+00 | 7.000000e+00 |  16.67%|   0.29%
 time | node  | left  |LP iter|LP it/n|mem/heur|mdpt |vars |cons |rows |cuts |sepa|confs|strbr|  dualbound   | primalbound  |  gap   | compl. 
 1602s|    21 |    20 |  5388 | 165.5 |    25M |  11 |5917 |  48 |  48 |   0 |  1 |   0 |   0 | 6.000000e+00 | 7.000000e+00 |  16.67%|   0.29%
 time | node  | left  |LP iter|LP it/n|mem/heur|mdpt |vars |cons |rows |cuts |sepa|confs|strbr|  dualbound   | primalbound  |  gap   | compl. 
 1602s|    22 |    21 |  5406 | 158.5 |    25M |  12 |5917 |  48 |  48 |   0 |  1 |   0 |   0 | 6.000000e+00 | 7.000000e+00 |  16.67%|   0.29%
 time | node  | left  |LP iter|LP it/n|mem/heur|mdpt |vars |cons |rows |cuts |sepa|confs|strbr|  dualbound   | primalbound  |  gap   | compl. 
 1603s|    23 |    22 |  5572 | 158.8 |    25M |  13 |5917 |  48 |  48 |   0 |  1 |   0 |   0 | 6.000000e+00 | 7.000000e+00 |  16.67%|   0.29%
 time | node  | left  |LP iter|LP it/n|mem/heur|mdpt |vars |cons |rows |cuts |sepa|confs|strbr|  dualbound   | primalbound  |  gap   | compl. 
 1603s|    24 |    23 |  5857 | 164.3 |    28M |  13 |6287 |  48 |  48 |   0 |  1 |   0 |   0 | 6.000000e+00 | 7.000000e+00 |  16.67%|   0.29%
 time | node  | left  |LP iter|LP it/n|mem/heur|mdpt |vars |cons |rows |cuts |sepa|confs|strbr|  dualbound   | primalbound  |  gap   | compl. 
 1604s|    25 |    22 |  5893 | 159.0 |    28M |  13 |6305 |  48 |  48 |   0 |  0 |   0 |   0 | 6.000000e+00 | 7.000000e+00 |  16.67%|   0.29%
 time | node  | left  |LP iter|LP it/n|mem/heur|mdpt |vars |cons |rows |cuts |sepa|confs|strbr|  dualbound   | primalbound  |  gap   | compl. 
 1604s|    26 |    23 |  5947 | 154.8 |    28M |  13 |6305 |  48 |  48 |   0 |  1 |   0 |   0 | 6.000000e+00 | 7.000000e+00 |  16.67%|   0.29%
 time | node  | left  |LP iter|LP it/n|mem/heur|mdpt |vars |cons |rows |cuts |sepa|confs|strbr|  dualbound   | primalbound  |  gap   | compl. 
 1605s|    27 |    24 |  5989 | 150.4 |    29M |  13 |6305 |  48 |  48 |   0 |  1 |   0 |   0 | 6.000000e+00 | 7.000000e+00 |  16.67%|   0.29%
 time | node  | left  |LP iter|LP it/n|mem/heur|mdpt |vars |cons |rows |cuts |sepa|confs|strbr|  dualbound   | primalbound  |  gap   | compl. 
 1605s|    28 |    23 |  6159 | 151.1 |    29M |  13 |6317 |  48 |  48 |   0 |  0 |   0 |   0 | 6.000000e+00 | 7.000000e+00 |  16.67%|   0.29%
 time | node  | left  |LP iter|LP it/n|mem/heur|mdpt |vars |cons |rows |cuts |sepa|confs|strbr|  dualbound   | primalbound  |  gap   | compl. 
 1606s|    29 |    24 |  6388 | 153.9 |    30M |  13 |6670 |  48 |  48 |   0 |  1 |   0 |   0 | 6.000000e+00 | 7.000000e+00 |  16.67%|   0.33%
 time | node  | left  |LP iter|LP it/n|mem/heur|mdpt |vars |cons |rows |cuts |sepa|confs|strbr|  dualbound   | primalbound  |  gap   | compl. 
 1610s|    30 |    25 |  6510 | 152.8 |    31M |  14 |7024 |  48 |  48 |   0 |  1 |   0 |   0 | 6.000000e+00 | 7.000000e+00 |  16.67%|   0.33%
 time | node  | left  |LP iter|LP it/n|mem/heur|mdpt |vars |cons |rows |cuts |sepa|confs|strbr|  dualbound   | primalbound  |  gap   | compl. 
 1610s|    31 |    26 |  6637 | 152.0 |    31M |  15 |7024 |  48 |  48 |   0 |  1 |   0 |   0 | 6.000000e+00 | 7.000000e+00 |  16.67%|   0.33%
 time | node  | left  |LP iter|LP it/n|mem/heur|mdpt |vars |cons |rows |cuts |sepa|confs|strbr|  dualbound   | primalbound  |  gap   | compl. 
 1611s|    32 |    27 |  7024 | 159.5 |    31M |  16 |7024 |  48 |  48 |   0 |  1 |   0 |   0 | 6.000000e+00 | 7.000000e+00 |  16.67%|   0.33%
 time | node  | left  |LP iter|LP it/n|mem/heur|mdpt |vars |cons |rows |cuts |sepa|confs|strbr|  dualbound   | primalbound  |  gap   | compl. 
 1612s|    33 |    26 |  7078 | 156.2 |    31M |  16 |7024 |  48 |  48 |   0 |  0 |   0 |   0 | 6.000000e+00 | 7.000000e+00 |  16.67%|   0.33%
 time | node  | left  |LP iter|LP it/n|mem/heur|mdpt |vars |cons |rows |cuts |sepa|confs|strbr|  dualbound   | primalbound  |  gap   | compl. 
 1612s|    34 |    25 |  7150 | 153.7 |    31M |  16 |7025 |  48 |  48 |   0 |  0 |   0 |   0 | 6.000000e+00 | 7.000000e+00 |  16.67%|   0.33%
 time | node  | left  |LP iter|LP it/n|mem/heur|mdpt |vars |cons |rows |cuts |sepa|confs|strbr|  dualbound   | primalbound  |  gap   | compl. 
 1613s|    35 |    26 |  7192 | 150.4 |    31M |  17 |7025 |  48 |  48 |   0 |  1 |   0 |   0 | 6.000000e+00 | 7.000000e+00 |  16.67%|   0.33%
 time | node  | left  |LP iter|LP it/n|mem/heur|mdpt |vars |cons |rows |cuts |sepa|confs|strbr|  dualbound   | primalbound  |  gap   | compl. 
 1614s|    36 |    27 |  7714 | 161.0 |    31M |  18 |7025 |  48 |  48 |   0 |  1 |   0 |   0 | 6.000000e+00 | 7.000000e+00 |  16.67%|   0.33%
 time | node  | left  |LP iter|LP it/n|mem/heur|mdpt |vars |cons |rows |cuts |sepa|confs|strbr|  dualbound   | primalbound  |  gap   | compl. 
 1614s|    37 |    28 |  7734 | 157.1 |    31M |  18 |7025 |  48 |  48 |   0 |  1 |   0 |   0 | 6.000000e+00 | 7.000000e+00 |  16.67%|   0.33%
 time | node  | left  |LP iter|LP it/n|mem/heur|mdpt |vars |cons |rows |cuts |sepa|confs|strbr|  dualbound   | primalbound  |  gap   | compl. 
 1615s|    38 |    29 |  7805 | 154.8 |    31M |  18 |7025 |  48 |  48 |   0 |  1 |   0 |   0 | 6.000000e+00 | 7.000000e+00 |  16.67%|   0.33%
 time | node  | left  |LP iter|LP it/n|mem/heur|mdpt |vars |cons |rows |cuts |sepa|confs|strbr|  dualbound   | primalbound  |  gap   | compl. 
 1615s|    39 |    30 |  7941 | 154.3 |    33M |  19 |7316 |  48 |  48 |   0 |  1 |   0 |   0 | 6.000000e+00 | 7.000000e+00 |  16.67%|   0.33%
 time | node  | left  |LP iter|LP it/n|mem/heur|mdpt |vars |cons |rows |cuts |sepa|confs|strbr|  dualbound   | primalbound  |  gap   | compl. 
 1616s|    40 |    31 |  8004 | 151.9 |    33M |  20 |7316 |  48 |  48 |   0 |  1 |   0 |   0 | 6.000000e+00 | 7.000000e+00 |  16.67%|   0.33%
 time | node  | left  |LP iter|LP it/n|mem/heur|mdpt |vars |cons |rows |cuts |sepa|confs|strbr|  dualbound   | primalbound  |  gap   | compl. 
 1617s|    41 |    32 |  8029 | 148.8 |    33M |  21 |7316 |  48 |  48 |   0 |  1 |   0 |   0 | 6.000000e+00 | 7.000000e+00 |  16.67%|   0.33%
 time | node  | left  |LP iter|LP it/n|mem/heur|mdpt |vars |cons |rows |cuts |sepa|confs|strbr|  dualbound   | primalbound  |  gap   | compl. 
 1618s|    42 |    33 |  8177 | 148.8 |    34M |  22 |7610 |  48 |  48 |   0 |  1 |   0 |   0 | 6.000000e+00 | 7.000000e+00 |  16.67%|   0.33%
 time | node  | left  |LP iter|LP it/n|mem/heur|mdpt |vars |cons |rows |cuts |sepa|confs|strbr|  dualbound   | primalbound  |  gap   | compl. 
 1619s|    43 |    34 |  8248 | 146.9 |    34M |  23 |7610 |  48 |  48 |   0 |  1 |   0 |   0 | 6.000000e+00 | 7.000000e+00 |  16.67%|   0.33%
 time | node  | left  |LP iter|LP it/n|mem/heur|mdpt |vars |cons |rows |cuts |sepa|confs|strbr|  dualbound   | primalbound  |  gap   | compl. 
 1619s|    44 |    35 |  8266 | 143.9 |    34M |  24 |7610 |  48 |  48 |   0 |  1 |   0 |   0 | 6.000000e+00 | 7.000000e+00 |  16.67%|   0.33%
 time | node  | left  |LP iter|LP it/n|mem/heur|mdpt |vars |cons |rows |cuts |sepa|confs|strbr|  dualbound   | primalbound  |  gap   | compl. 
 1620s|    45 |    36 |  8324 | 142.0 |    34M |  25 |7610 |  48 |  48 |   0 |  1 |   0 |   0 | 6.000000e+00 | 7.000000e+00 |  16.67%|   0.33%
 time | node  | left  |LP iter|LP it/n|mem/heur|mdpt |vars |cons |rows |cuts |sepa|confs|strbr|  dualbound   | primalbound  |  gap   | compl. 
 1621s|    46 |    35 |  8351 | 139.4 |    34M |  25 |7656 |  48 |  48 |   0 |  0 |   0 |   0 | 6.000000e+00 | 7.000000e+00 |  16.67%|   0.33%
 time | node  | left  |LP iter|LP it/n|mem/heur|mdpt |vars |cons |rows |cuts |sepa|confs|strbr|  dualbound   | primalbound  |  gap   | compl. 
 1622s|    47 |    34 |  8410 | 137.7 |    35M |  25 |7680 |  48 |  48 |   0 |  0 |   0 |   0 | 6.000000e+00 | 7.000000e+00 |  16.67%|   0.33%
 time | node  | left  |LP iter|LP it/n|mem/heur|mdpt |vars |cons |rows |cuts |sepa|confs|strbr|  dualbound   | primalbound  |  gap   | compl. 
 1625s|    48 |    35 |  8661 | 140.1 |    37M |  25 |8253 |  48 |  48 |   0 |  1 |   0 |   0 | 6.000000e+00 | 7.000000e+00 |  16.67%|   0.33%
 time | node  | left  |LP iter|LP it/n|mem/heur|mdpt |vars |cons |rows |cuts |sepa|confs|strbr|  dualbound   | primalbound  |  gap   | compl. 
 1627s|    49 |    36 |  8823 | 140.5 |    38M |  25 |8548 |  48 |  48 |   0 |  1 |   0 |   0 | 6.000000e+00 | 7.000000e+00 |  16.67%|   0.33%
 time | node  | left  |LP iter|LP it/n|mem/heur|mdpt |vars |cons |rows |cuts |sepa|confs|strbr|  dualbound   | primalbound  |  gap   | compl. 
 1627s|    50 |    37 |  8886 | 138.9 |    38M |  25 |8548 |  48 |  48 |   0 |  1 |   0 |   0 | 6.000000e+00 | 7.000000e+00 |  16.67%|   0.33%
 time | node  | left  |LP iter|LP it/n|mem/heur|mdpt |vars |cons |rows |cuts |sepa|confs|strbr|  dualbound   | primalbound  |  gap   | compl. 
 1631s|    51 |    38 |  9413 | 146.7 |    40M |  25 |8847 |  48 |  48 |   0 |  1 |   0 |   0 | 6.000000e+00 | 7.000000e+00 |  16.67%|   0.33%
 time | node  | left  |LP iter|LP it/n|mem/heur|mdpt |vars |cons |rows |cuts |sepa|confs|strbr|  dualbound   | primalbound  |  gap   | compl. 
 1631s|    52 |    39 |  9600 | 147.5 |    40M |  25 |9129 |  48 |  48 |   0 |  1 |   0 |   0 | 6.000000e+00 | 7.000000e+00 |  16.67%|   0.33%
 time | node  | left  |LP iter|LP it/n|mem/heur|mdpt |vars |cons |rows |cuts |sepa|confs|strbr|  dualbound   | primalbound  |  gap   | compl. 
 1632s|    53 |    40 |  9631 | 145.2 |    41M |  26 |9129 |  48 |  48 |   0 |  1 |   0 |   0 | 6.000000e+00 | 7.000000e+00 |  16.67%|   0.33%
 time | node  | left  |LP iter|LP it/n|mem/heur|mdpt |vars |cons |rows |cuts |sepa|confs|strbr|  dualbound   | primalbound  |  gap   | compl. 
 1633s|    54 |    41 |  9638 | 142.6 |    41M |  27 |9129 |  48 |  48 |   0 |  1 |   0 |   0 | 6.000000e+00 | 7.000000e+00 |  16.67%|   0.33%
 time | node  | left  |LP iter|LP it/n|mem/heur|mdpt |vars |cons |rows |cuts |sepa|confs|strbr|  dualbound   | primalbound  |  gap   | compl. 
 1634s|    55 |    42 |  9639 | 140.0 |    41M |  28 |9129 |  48 |  48 |   0 |  1 |   0 |   0 | 6.000000e+00 | 7.000000e+00 |  16.67%|   0.33%
 time | node  | left  |LP iter|LP it/n|mem/heur|mdpt |vars |cons |rows |cuts |sepa|confs|strbr|  dualbound   | primalbound  |  gap   | compl. 
r1635s|    56 |     0 |  9663 | 137.9 |simplero|  29 |9129 |  48 |  48 |   0 |  0 |   0 |   0 | 6.000000e+00 | 6.000000e+00 |   0.00%| 100.00%

SCIP Status        : problem is solved [optimal solution found]
Solving Time (sec) : 1634.55
Solving Nodes      : 56
Primal Bound       : +6.00000000000000e+00 (4 solutions)
Dual Bound         : +6.00000000000000e+00
Gap                : 0.00 %
Running with parallel: True bidir: True symbreak: True
Number of Nodes:  48
48.95833333333333% holds
starting cheapest insertion heuristic
Heuristic without TSP improvement:  8
Heuristic without TSP improvement time:  0.1
Heuristic Sol:  8
Heuristic total time:  0.1
[[15, 32, 3, 5, 0, 43], [29, 22, 8], [47, 39, 16, 14, 24, 17, 12, 23, 35], [46, 37, 33, 45, 19, 18, 2, 36, 10, 4], [44, 9, 34, 13], [42, 20, 21, 1, 7, 41, 25], [40, 28], [38, 31, 30, 26, 27, 6, 11]]
Instance path:  /home/htc/mghannam/SCRATCH/lccp-rust/data/t62_att48.npcc
Timelimit:  7200
Heuristic without TSP improvement:  8
Heuristic without TSP improvement time:  0.1
Heuristic Sol:  8
Heuristic total time:  0.5
at 1 zero_duals: 40
at1, LP obj: 8.0 n_added_paths: 808
at 1 zero_duals: 34
at1, LP obj: 8.0 n_added_paths: 278
at 1 zero_duals: 23
at1, LP obj: 8.0 n_added_paths: 611
at 1 zero_duals: 8
at1, LP obj: 6.995195607412492 n_added_paths: 633
at 1 zero_duals: 11
at1, LP obj: 6.241749808135072 n_added_paths: 466
at 1 zero_duals: 7
at1, LP obj: 6.039906983722151 n_added_paths: 325
at 1 zero_duals: 5
at1, LP obj: 5.761204516279421 n_added_paths: 226
at 1 zero_duals: 3
Switching to elementary pricing
at1, LP obj: 5.659574468085106 n_added_paths: 247
updated lowerbound from 1.0 to 4
at 1 zero_duals: 6
Switching to elementary pricing
at1, LP obj: 5.552631578947368 n_added_paths: 213
at 1 zero_duals: 7
Switching to elementary pricing
at1, LP obj: 5.5 n_added_paths: 109
updated lowerbound from 4.0 to 5
at 1 zero_duals: 2
Switching to elementary pricing
at1, LP obj: 5.49738219895288 n_added_paths: 111
at 1 zero_duals: 1
Switching to elementary pricing
at1, LP obj: 5.488372093023256 n_added_paths: 28
updated lowerbound from 5.0 to 6
Gap too small = 0, stopping pricing with lb = 6
Gap too small = 0, stopping pricing with lb = 6
Gap too small = 0, stopping pricing with lb = 6
Gap too small = 0, stopping pricing with lb = 6
Gap too small = 0, stopping pricing with lb = 6
Gap too small = 0, stopping pricing with lb = 6
Gap too small = 0, stopping pricing with lb = 6
Gap too small = 0, stopping pricing with lb = 6
Gap too small = 0, stopping pricing with lb = 6
at 17 zero_duals: 12
at17, LP obj: 6.25799086757991 n_added_paths: 495
Gap too small = 0, stopping pricing with lb = 6
Gap too small = 0, stopping pricing with lb = 6
at 21 zero_duals: 46
Switching to elementary pricing
at21, LP obj: 1e+20 n_added_paths: 7
updated lowerbound from 6.0 to 100000000000000000000
at 21 zero_duals: 7
at21, LP obj: 6.7812 n_added_paths: 283
at 21 zero_duals: 3
at21, LP obj: 6.633750823994727 n_added_paths: 122
at 21 zero_duals: 4
Switching to elementary pricing
at21, LP obj: 6.542139963460164 n_added_paths: 198
at 21 zero_duals: 3
Switching to elementary pricing
at21, LP obj: 6.518419647624133 n_added_paths: 64
at 21 zero_duals: 2
Switching to elementary pricing
at21, LP obj: 6.48294930875576 n_added_paths: 19
updated lowerbound from 6.0 to 7
Gap too small = 0, stopping pricing with lb = 6
Gap too small = 0, stopping pricing with lb = 6
Gap too small = 0, stopping pricing with lb = 6
Gap too small = 0, stopping pricing with lb = 6
Gap too small = 0, stopping pricing with lb = 6
Gap too small = 0, stopping pricing with lb = 6
at 29 zero_duals: 4
Switching to elementary pricing
at29, LP obj: 6.013102480112307 n_added_paths: 618
Gap too small = 0, stopping pricing with lb = 6
Gap too small = 0, stopping pricing with lb = 6
Gap too small = 0, stopping pricing with lb = 6
Gap too small = 0, stopping pricing with lb = 6
Gap too small = 0, stopping pricing with lb = 6
at 41 zero_duals: 8
at41, LP obj: 6.095076400679117 n_added_paths: 370
Gap too small = 0, stopping pricing with lb = 6
at 46 zero_duals: 45
Switching to elementary pricing
at46, LP obj: 1e+20 n_added_paths: 18
updated lowerbound from 6.0 to 100000000000000000000
at 46 zero_duals: 46
Switching to elementary pricing
at46, LP obj: 1e+20 n_added_paths: 0
updated lowerbound from 6.0 to 100000000000000000000
Gap too small = 0, stopping pricing with lb = 6
Gap too small = 0, stopping pricing with lb = 6
at 37 zero_duals: 46
Switching to elementary pricing
at37, LP obj: 1e+20 n_added_paths: 12
updated lowerbound from 6.0 to 100000000000000000000
at 37 zero_duals: 47
Switching to elementary pricing
at37, LP obj: 1e+20 n_added_paths: 0
updated lowerbound from 6.0 to 100000000000000000000
at 43 zero_duals: 7
at43, LP obj: 6.344444444444444 n_added_paths: 353
Gap too small = 0, stopping pricing with lb = 6
at 52 zero_duals: 4
Switching to elementary pricing
at52, LP obj: 6.015625 n_added_paths: 354
Gap too small = 0, stopping pricing with lb = 6
Gap too small = 0, stopping pricing with lb = 6
Gap too small = 0, stopping pricing with lb = 6
at 53 zero_duals: 46
Switching to elementary pricing
at53, LP obj: 1e+20 n_added_paths: 0
updated lowerbound from 6.0 to 100000000000000000000
at 55 zero_duals: 45
Switching to elementary pricing
at55, LP obj: 1e+20 n_added_paths: 1
updated lowerbound from 6.0 to 100000000000000000000
at 55 zero_duals: 46
Switching to elementary pricing
at55, LP obj: 1e+20 n_added_paths: 0
updated lowerbound from 6.0 to 100000000000000000000
Gap too small = 0, stopping pricing with lb = 6
Gap too small = 0, stopping pricing with lb = 6
Gap too small = 0, stopping pricing with lb = 6
Gap too small = 0, stopping pricing with lb = 6
at 66 zero_duals: 6
at66, LP obj: 6.0153683094859565 n_added_paths: 291
Gap too small = 0, stopping pricing with lb = 6
Gap too small = 0, stopping pricing with lb = 6
Gap too small = 0, stopping pricing with lb = 6
at 72 zero_duals: 6
Switching to elementary pricing
at72, LP obj: 6.023357664233576 n_added_paths: 294
Gap too small = 0, stopping pricing with lb = 6
Gap too small = 0, stopping pricing with lb = 6
Gap too small = 0, stopping pricing with lb = 6
Gap too small = 0, stopping pricing with lb = 6
at 75 zero_duals: 45
Switching to elementary pricing
at75, LP obj: 1e+20 n_added_paths: 46
updated lowerbound from 6.0 to 100000000000000000000
at 75 zero_duals: 47
Switching to elementary pricing
at75, LP obj: 1e+20 n_added_paths: 0
updated lowerbound from 6.0 to 100000000000000000000
at 69 zero_duals: 45
at69, LP obj: 1e+20 n_added_paths: 24
at 69 zero_duals: 46
Switching to elementary pricing
at69, LP obj: 1e+20 n_added_paths: 0
updated lowerbound from 6.0 to 100000000000000000000
at 65 zero_duals: 10
Switching to elementary pricing
at65, LP obj: 6.330223880597015 n_added_paths: 573
Gap too small = 0, stopping pricing with lb = 6
at 82 zero_duals: 9
Switching to elementary pricing
at82, LP obj: 6.051724137931035 n_added_paths: 295
Gap too small = 0, stopping pricing with lb = 6
Gap too small = 0, stopping pricing with lb = 6
at 86 zero_duals: 5
Switching to elementary pricing
at86, LP obj: 6.024539877300613 n_added_paths: 299
Gap too small = 0, stopping pricing with lb = 6
at 79 zero_duals: 9
at79, LP obj: 6.149777428646242 n_added_paths: 282
Gap too small = 0, stopping pricing with lb = 6
Gap too small = 0, stopping pricing with lb = 6
Gap too small = 0, stopping pricing with lb = 6
Gap too small = 0, stopping pricing with lb = 6
Best solution found:
[29, 27, 22, 8, 5, 3, 0, 29] 1.0 0.9999999999999982
checking cycle [29, 27, 22, 8, 5, 3, 0, 29]
[29, 27, 22, 8, 5, 3, 0, 29] 3132 2956
[44, 43, 15, 9, 34, 13, 44] 1.0 0.9999999999999989
checking cycle [44, 43, 15, 9, 34, 13, 44]
[44, 43, 15, 9, 34, 13, 44] 2052 1864
[47, 39, 23, 12, 40, 32, 35, 47] 1.0 0.9999999999999981
checking cycle [47, 39, 23, 12, 40, 32, 35, 47]
[47, 39, 23, 12, 40, 32, 35, 47] 1777 1645
[46, 38, 11, 31, 30, 33, 14, 45, 46] 1.0 0.9999999999999987
checking cycle [46, 38, 11, 31, 30, 33, 14, 45, 46]
[46, 38, 11, 31, 30, 33, 14, 45, 46] 1818 1747
[42, 7, 1, 41, 25, 21, 18, 20, 37, 2, 36, 42] 1.0 0.9999999999999994
checking cycle [42, 7, 1, 41, 25, 21, 18, 20, 37, 2, 36, 42]
[42, 7, 1, 41, 25, 21, 18, 20, 37, 2, 36, 42] 2161 2104
[28, 17, 24, 19, 10, 4, 16, 26, 6, 28] 1.0 0.9999999999999977
checking cycle [28, 17, 24, 19, 10, 4, 16, 26, 6, 28]
[28, 17, 24, 19, 10, 4, 16, 26, 6, 28] 3247 3213
